fac2.py
Ipopt 3.12: 
==> Warning: Treating 12 binary and 0 integer variables as continous.


******************************************************************************
This program contains Ipopt, a library for large-scale nonlinear optimization.
 Ipopt is released as open source code under the Eclipse Public License (EPL).
         For more information visit http://projects.coin-or.org/Ipopt
******************************************************************************

This is Ipopt version 3.12, running with linear solver ma27.

Number of nonzeros in equality constraint Jacobian...:       81
Number of nonzeros in inequality constraint Jacobian.:       78
Number of nonzeros in Lagrangian Hessian.............:      513

Total number of variables............................:       66
                     variables with only lower bounds:        0
                variables with lower and upper bounds:       66
                     variables with only upper bounds:        0
Total number of equality constraints.................:       21
Total number of inequality constraints...............:       12
        inequality constraints with only lower bounds:        3
   inequality constraints with lower and upper bounds:        0
        inequality constraints with only upper bounds:        9

iter    objective    inf_pr   inf_du lg(mu)  ||d||  lg(rg) alpha_du alpha_pr  ls
   0  6.7458704e+04 9.70e-01 3.67e-01  -1.0 0.00e+00    -  0.00e+00 0.00e+00   0
   1  3.1709701e+08 9.70e-03 6.17e+02  -1.0 9.07e+01    -  1.50e-03 9.90e-01h  1
   2  2.5547068e+08 1.14e-04 4.03e+00  -1.0 5.95e+01    -  6.03e-01 9.88e-01f  1
   3  2.5542212e+08 7.79e-05 9.38e+00  -1.0 3.82e+00    -  9.80e-01 3.17e-01f  1
   4  2.5538332e+08 2.94e-05 1.14e+01  -1.0 2.97e+00    -  1.00e+00 6.23e-01f  1
   5  2.5537923e+08 2.15e-05 4.88e+01  -1.0 1.12e+00    -  1.00e+00 2.66e-01f  2
   6  2.5537259e+08 5.08e-06 2.92e+01  -1.0 8.15e-01    -  1.00e+00 7.64e-01h  1
   7  2.5537237e+08 4.38e-06 2.99e+02  -1.0 1.92e-01    -  1.00e+00 1.38e-01f  3
   8  2.5537133e+08 9.05e-07 1.38e+02  -1.0 1.65e-01    -  1.00e+00 7.93e-01h  1
   9  2.5537127e+08 6.95e-07 1.46e+03  -1.0 3.43e-02    -  1.00e+00 2.32e-01f  2
iter    objective    inf_pr   inf_du lg(mu)  ||d||  lg(rg) alpha_du alpha_pr  ls
  10  2.5537112e+08 1.51e-07 8.06e+02  -1.0 2.63e-02    -  1.00e+00 7.83e-01h  1
  11  2.5537111e+08 1.09e-07 7.69e+03  -1.0 5.69e-03    -  1.00e+00 2.75e-01f  2
  12  2.5537108e+08 6.04e-09 1.11e+03  -1.0 4.13e-03    -  1.00e+00 9.45e-01h  1
  13  2.5537108e+08 4.82e-09 6.96e+04  -1.0 2.30e-04    -  1.00e+00 2.01e-01f  2
  14  2.5537108e+08 2.84e-14 1.00e-06  -1.0 1.82e-04    -  1.00e+00 1.00e+00h  1
  15  2.5535861e+08 7.14e-13 3.77e+04  -3.8 6.62e+00    -  7.15e-01 9.69e-01f  1
  16  2.5534533e+08 8.88e-14 2.50e+04  -3.8 2.06e+01    -  4.09e-01 1.00e+00f  1
  17  2.5533832e+08 1.82e-14 1.34e+04  -3.8 2.01e+01    -  4.66e-01 7.85e-01f  1
  18  2.5533692e+08 8.44e-15 5.86e+03  -3.8 8.67e+00    -  5.61e-01 5.53e-01f  1
  19  2.5533503e+08 7.11e-15 2.15e+03  -3.8 1.72e+01    -  6.33e-01 8.79e-01f  1
iter    objective    inf_pr   inf_du lg(mu)  ||d||  lg(rg) alpha_du alpha_pr  ls
  20  2.5533469e+08 7.11e-15 1.50e-09  -3.8 3.94e+00    -  1.00e+00 1.00e+00f  1
  21  2.5533450e+08 7.11e-15 3.83e+00  -5.7 8.11e-01    -  9.84e-01 1.00e+00f  1
  22  2.5533450e+08 7.11e-15 1.84e-11  -5.7 7.75e-03    -  1.00e+00 1.00e+00f  1
  23  2.5533450e+08 7.11e-15 2.14e-12  -8.6 1.14e-02    -  1.00e+00 1.00e+00f  1

Number of Iterations....: 23

                                   (scaled)                 (unscaled)
Objective...............:   1.0289937239359526e+04    2.5533450265746728e+08
Dual infeasibility......:   2.1401701796465553e-12    5.3106182837749623e-08
Constraint violation....:   7.1054273576010019e-15    7.1054273576010019e-15
Complementarity.........:   3.4230337739601354e-09    8.4939160067046797e-05
Overall NLP error.......:   3.4230337739601354e-09    8.4939160067046797e-05


Number of objective function evaluations             = 30
Number of objective gradient evaluations             = 24
Number of equality constraint evaluations            = 30
Number of inequality constraint evaluations          = 30
Number of equality constraint Jacobian evaluations   = 24
Number of inequality constraint Jacobian evaluations = 24
Number of Lagrangian Hessian evaluations             = 23
Total CPU secs in IPOPT (w/o function evaluations)   =      0.009
Total CPU secs in NLP function evaluations           =      0.001

EXIT: Optimal Solution Found.

Time elapsed: 0.11883831024169922